1
1000
120
494 1
483 1
483 1
481 1
477 1
476 1
475 1
471 1
462 1
461 1
460 1
460 1
454 1
449 1
447 1
443 1
436 1
430 1
429 1
427 1
424 1
418 1
418 1
411 1
411 1
408 1
406 1
402 1
398 1
397 1
395 1
382 1
379 1
378 1
375 1
372 1
370 1
369 1
368 1
364 1
360 1
358 1
357 1
354 1
351 1
346 1
346 1
336 1
334 1
326 1
325 1
322 1
321 1
317 1
316 1
315 1
315 1
312 1
309 1
309 1
305 1
304 1
301 1
301 1
297 1
296 1
290 1
290 1
289 1
289 1
289 1
288 1
288 1
286 1
285 1
285 1
284 1
284 1
284 1
281 1
280 1
280 1
277 1
276 1
273 1
271 1
271 1
270 1
269 1
269 1
269 1
268 1
268 1
268 1
268 1
267 1
267 1
266 1
264 1
264 1
263 1
263 1
261 1
261 1
259 1
258 1
257 1
257 1
257 1
255 1
255 1
254 1
252 1
251 1
251 1
251 1
251 1
251 1
250 1
250 1
